p edge 103 233
e 1 2
e 1 3
e 1 7
e 1 18
e 1 23
e 1 25
e 1 37
e 1 41
e 1 52
e 2 10
e 2 16
e 2 23
e 2 34
e 2 84
e 3 15
e 3 18
e 3 28
e 3 32
e 3 52
e 3 57
e 3 59
e 3 90
e 4 16
e 4 34
e 5 6
e 5 8
e 5 10
e 5 12
e 5 19
e 5 31
e 5 33
e 5 38
e 5 39
e 5 42
e 5 52
e 5 61
e 5 62
e 5 76
e 6 8
e 6 12
e 6 31
e 6 33
e 6 42
e 6 61
e 6 62
e 7 25
e 7 37
e 7 41
e 7 65
e 7 71
e 7 72
e 8 9
e 8 33
e 8 42
e 8 49
e 8 56
e 8 61
e 9 14
e 9 20
e 9 33
e 9 51
e 9 55
e 9 56
e 9 61
e 9 89
e 10 23
e 10 37
e 10 45
e 11 20
e 11 22
e 11 27
e 11 30
e 11 35
e 11 40
e 11 44
e 11 54
e 11 58
e 11 63
e 11 64
e 11 96
e 11 97
e 12 14
e 12 26
e 12 31
e 12 42
e 12 59
e 12 62
e 12 67
e 13 19
e 13 27
e 13 49
e 13 63
e 13 64
e 13 73
e 13 81
e 13 88
e 14 20
e 14 46
e 14 55
e 14 61
e 14 67
e 15 18
e 15 51
e 15 59
e 16 34
e 16 38
e 16 39
e 17 20
e 17 28
e 17 36
e 17 46
e 17 48
e 17 91
e 17 93
e 18 19
e 18 51
e 18 52
e 19 39
e 19 50
e 19 52
e 19 66
e 20 22
e 20 30
e 20 40
e 20 44
e 20 46
e 20 55
e 20 60
e 20 61
e 21 22
e 21 25
e 21 41
e 21 43
e 21 77
e 21 85
e 21 92
e 21 102
e 22 30
e 22 35
e 22 40
e 22 42
e 22 44
e 22 62
e 22 85
e 23 75
e 24 31
e 24 78
e 25 41
e 26 30
e 26 37
e 26 59
e 26 65
e 27 63
e 27 64
e 27 73
e 27 88
e 28 32
e 28 46
e 28 48
e 28 57
e 28 69
e 28 90
e 29 30
e 29 35
e 29 54
e 29 69
e 29 70
e 30 40
e 30 44
e 30 54
e 31 42
e 31 62
e 32 48
e 32 57
e 32 90
e 33 56
e 33 61
e 34 38
e 35 40
e 35 44
e 35 54
e 35 69
e 36 48
e 36 50
e 36 53
e 36 91
e 36 93
e 37 45
e 39 52
e 39 80
e 40 42
e 40 44
e 40 62
e 42 62
e 43 71
e 43 72
e 43 92
e 44 54
e 45 74
e 47 70
e 47 94
e 48 91
e 49 103
e 50 53
e 50 66
e 50 95
e 51 56
e 53 55
e 54 69
e 55 61
e 57 90
e 58 96
e 58 97
e 60 75
e 63 64
e 63 73
e 64 73
e 65 98
e 68 73
e 68 87
e 69 79
e 71 72
e 73 87
e 77 99
e 77 100
e 77 101
e 77 102
e 79 86
e 82 83
e 96 97
e 99 100
e 99 101
e 100 101
